15,5	0,0	6,0	12,1	0,0	0,0	0,0	0,0	0,0	19,9
6,5	7,6	0,0	9,4	7,8	0,0	0,0	14,8	0,0	0,0
0,0	0,0	15,2	0,0	7,1	5,3	0,0	0,0	16,7	0,0
12,0	0,0	7,9	0,0	0,0	0,0	5,6	0,0	0,0	0,0
0,0	17,5	0,0	12,4	18,8	0,0	0,0	7,8	0,0	0,0
0,0	13,7	5,2	0,0	9,0	7,0	0,0	0,0	10,9	0,0
0,0	17,1	0,0	10,6	0,0	0,0	15,5	0,0	0,0	12,9
6,3	0,0	8,4	0,0	0,0	0,0	0,0	0,0	0,0	6,8
0,0	18,5	0,0	5,2	13,4	0,0	0,0	10,2	0,0	0,0
0,0	0,0	13,6	0,0	0,0	13,6	13,0	0,0	0,0	15,3
0,0	13,7	0,0	0,0	19,4	0,0	5,3	0,0	16,6	13,6
15,5	0,0	19,4	0,0	9,9	0,0	17,1	10,4	15,3	0,0
0,0	13,9	0,0	0,0	0,0	9,5	0,0	7,7	5,5	18,0
17,6	14,1	13,5	0,0	0,0	15,3	0,0	15,3	11,2	0,0
16,8	0,0	7,6	0,0	15,3	10,9	19,3	10,5	0,0	0,0
0,0	17,5	0,0	8,7	0,0	11,4	0,0	7,9	0,0	0,0
19,2	0,0	7,6	5,8	8,5	0,0	0,0	6,8	0,0	0,0
0,0	0,0	12,6	0,0	0,0	9,0	9,6	0,0	16,5	17,6
12,8	0,0	0,0	10,7	7,7	13,7	5,8	16,0	0,0	13,7
0,0	6,0	0,0	8,9	0,0	0,0	7,1	0,0	11,0	17,8
									
3,0	3,2	3,1	2,9	4,9	3,4	4,9	3,7	3,5	4,1
